results/res_prop_muc/res_Cimatti_mathsat_cores/QF_UF/NEQ041_size8.smt.smt2.out

real	0m13.770s
user	0m13.436s
sys	0m0.279s
