results/res_prop_muc/res_Cimatti_mathsat_cores/QF_UF/NEQ041_size8.smt.smt2.res
unsat
( _c0
  _c1
  _c10
  _c1000
  _c1001
  _c1002
  _c1003
  _c1004
  _c101
  _c110
  _c119
  _c128
  _c129
  _c19
  _c202
  _c275
  _c28
  _c348
  _c37
  _c421
  _c46
  _c494
  _c55
  _c567
  _c64
  _c640
  _c641
  _c65
  _c650
  _c659
  _c668
  _c677
  _c686
  _c695
  _c704
  _c705
  _c706
  _c707
  _c708
  _c709
  _c710
  _c711
  _c712
  _c713
  _c714
  _c715
  _c716
  _c717
  _c718
  _c719
  _c720
  _c721
  _c722
  _c723
  _c724
  _c725
  _c726
  _c727
  _c728
  _c729
  _c730
  _c731
  _c732
  _c733
  _c734
  _c735
  _c736
  _c737
  _c738
  _c739
  _c74
  _c740
  _c741
  _c742
  _c743
  _c744
  _c745
  _c746
  _c747
  _c748
  _c749
  _c750
  _c751
  _c752
  _c753
  _c754
  _c755
  _c756
  _c757
  _c758
  _c759
  _c760
  _c761
  _c762
  _c763
  _c764
  _c765
  _c766
  _c767
  _c768
  _c769
  _c778
  _c787
  _c796
  _c805
  _c814
  _c823
  _c83
  _c832
  _c833
  _c842
  _c851
  _c860
  _c869
  _c878
  _c887
  _c896
  _c897
  _c906
  _c915
  _c92
  _c924
  _c933
  _c942
  _c951
  _c960
  _c961
  _c962
  _c963
  _c964
  _c965
  _c966
  _c967
  _c968
  _c969
  _c970
  _c971
  _c972
  _c973
  _c974
  _c975
  _c976
  _c977
  _c978
  _c979
  _c980
  _c981
  _c982
  _c983
  _c984
  _c985
  _c986
  _c987
  _c988
  _c989
  _c990
  _c991
  _c992
  _c993
  _c994
  _c995
  _c996
  _c997
  _c998
  _c999 )
